c description: Tseitin formula on Random 4-regular graph of 10 vertices, with odd charge
c generator: CNFgen (0.9.0)
c copyright: (C) 2012-2020 Massimo Lauria <massimo.lauria@uniroma1.it>
c url: https://massimolauria.net/cnfgen
c command line: cnfgen tseitin 10 4
c
p cnf 20 80
1 2 3 4 0
1 2 -3 -4 0
1 -2 3 -4 0
1 -2 -3 4 0
-1 2 3 -4 0
-1 2 -3 4 0
-1 -2 3 4 0
-1 -2 -3 -4 0
5 6 7 -8 0
5 6 -7 8 0
5 -6 7 8 0
5 -6 -7 -8 0
-5 6 7 8 0
-5 6 -7 -8 0
-5 -6 7 -8 0
-5 -6 -7 8 0
9 10 11 12 0
9 10 -11 -12 0
9 -10 11 -12 0
9 -10 -11 12 0
-9 10 11 -12 0
-9 10 -11 12 0
-9 -10 11 12 0
-9 -10 -11 -12 0
5 9 13 -14 0
5 9 -13 14 0
5 -9 13 14 0
5 -9 -13 -14 0
-5 9 13 14 0
-5 9 -13 -14 0
-5 -9 13 -14 0
-5 -9 -13 14 0
6 10 15 -16 0
6 10 -15 16 0
6 -10 15 16 0
6 -10 -15 -16 0
-6 10 15 16 0
-6 10 -15 -16 0
-6 -10 15 -16 0
-6 -10 -15 16 0
7 11 15 17 0
7 11 -15 -17 0
7 -11 15 -17 0
7 -11 -15 17 0
-7 11 15 -17 0
-7 11 -15 17 0
-7 -11 15 17 0
-7 -11 -15 -17 0
1 13 18 -19 0
1 13 -18 19 0
1 -13 18 19 0
1 -13 -18 -19 0
-1 13 18 19 0
-1 13 -18 -19 0
-1 -13 18 -19 0
-1 -13 -18 19 0
2 17 18 -20 0
2 17 -18 20 0
2 -17 18 20 0
2 -17 -18 -20 0
-2 17 18 20 0
-2 17 -18 -20 0
-2 -17 18 -20 0
-2 -17 -18 20 0
3 12 16 -20 0
3 12 -16 20 0
3 -12 16 20 0
3 -12 -16 -20 0
-3 12 16 20 0
-3 12 -16 -20 0
-3 -12 16 -20 0
-3 -12 -16 20 0
4 8 14 -19 0
4 8 -14 19 0
4 -8 14 19 0
4 -8 -14 -19 0
-4 8 14 19 0
-4 8 -14 -19 0
-4 -8 14 -19 0
-4 -8 -14 19 0
